NAME: ACTUAL_TOURS/amz1910
TYPE: TOUR
COMMENT: RouteID_caa87ce9-c46e-443e-b667-b882e19bae42
DIMENSION: 141
TOUR_SECTION
10
102
47
27
5
55
23
6
41
137
3
8
110
53
42
35
108
25
85
69
2
107
29
12
86
56
32
63
44
64
135
74
26
112
71
61
18
132
57
70
13
62
68
16
20
119
60
7
87
140
95
103
43
11
125
99
121
115
126
24
128
100
134
127
34
36
83
59
96
130
21
120
114
77
138
67
45
109
66
28
40
90
91
37
76
93
104
97
82
123
106
136
81
79
1
73
19
15
30
39
122
4
14
116
92
49
117
58
139
105
22
89
88
50
33
75
78
98
94
131
80
141
133
9
31
111
65
54
84
46
38
101
129
72
113
48
52
118
124
17
51
-1
EOF
